1erdotuz/erdotuz.dat
# set Planes := 1 2;
# set Dots := 1 2 3 4 5 6;

param nDots := 6; #Number of dots
param nPlanes := 2; #Number of planes

param:  x   y := #Dots coordinates
1       3   1
2       6   4
3       81  19
4       7   2
5       2   4
6       4   4;

param: width_coverage    height_coverage := #Planes coverage
1      3                 2
2      2                 4;

param M := 1000; #Big M

end;